Minimize
  - 17 y_0 - 13 y_1 - 21 y_2 - 14 y_4 - 23 y_5 - 13 y_6 - 17 y_7 - 19 y_8
   - 8 y_9 - 5 y_10 - 19 y_11 - 15 y_12 - 10 y_13 - 17 y_14 - 13 y_15
   - 20 y_16 - 5 y_17 - 13 y_18 - 20 y_19 - 15 y_20 - 15 y_21 - 9 y_22
   - 16 y_23 - 11 y_24 - 19 y_25 - 16 y_26 - 17 y_27 - 13 y_28 - 12 y_29
   - 15 y_30 - 22 y_31 - 7 y_32 - 4 y_33 - 17 y_34 - 13 y_35 - 14 y_36
   - 15 y_37 - 20 y_38 - 18 y_39 - 17 y_40 - 9 y_41 - 18 y_42 - 11 y_43
   - 12 y_44 - 12 y_46 - 10 y_47 - 19 y_48 - 15 y_49 - 13 y_50 - 24 y_51
   - 20 y_52 - 20 y_53 - 15 y_54 - 14 y_55 - 16 y_56 - 15 y_57 - 10 y_58
   - 20 y_59 - 16 y_60 - 19 y_61 - 18 y_62 - 3 y_63 - 19 y_64 - 20 y_65
   - 3 y_66 - 10 y_67 - 20 y_68 - 15 y_69 - 7 y_70 - 19 y_71 - 4 y_72
   - 13 y_73 - 21 y_74 - 9 y_75 - 17 y_76 - 19 y_77 - 11 y_78 - 13 y_79
   - 10 y_80 - 14 y_81 - 19 y_82 - 6 y_83 - 10 y_84 - 13 y_85 - 19 y_86
   - 20 y_87 - 12 y_88 - 18 y_89 - 17 y_90 - 25 y_91 - 15 y_92 - 13 y_93
   - 21 y_94 - 7 y_95 - 23 y_96 - 9 y_97 - 18 y_98 - 16 y_99
   + 1441 Constant
Subject To
 c_0: y_60 = 1
 c_1_0: y_0 + y_11 + y_25 + y_26 + y_30 + y_37 + y_39 + y_49 + y_55 + y_64
   + y_69 + y_71 + y_85 + y_89 + y_90 + y_92 + y_98 >= 1
 c_1_1: y_1 + y_13 + y_20 + y_21 + y_24 + y_47 + y_54 + y_56 + y_60 + y_73
   + y_81 + y_97 >= 1
 c_1_2: y_2 + y_5 + y_19 + y_31 + y_38 + y_51 + y_52 + y_59 + y_61 + y_68
   + y_74 + y_86 + y_87 + y_91 + y_94 + y_96 >= 1
 c_1_3: y_3 + y_45 + y_63 + y_66 + y_72 >= 1
 c_1_4: y_4 + y_27 + y_28 + y_30 + y_37 + y_50 + y_55 + y_69 + y_78 + y_79
   + y_85 + y_92 + y_93 >= 1
 c_1_5: y_2 + y_5 + y_19 + y_31 + y_38 + y_51 + y_52 + y_68 + y_74 + y_91
   + y_94 + y_96 >= 1
 c_1_6: y_6 + y_12 + y_26 + y_29 + y_35 + y_44 + y_46 + y_49 + y_55 + y_57
   + y_67 + y_69 + y_78 + y_80 + y_85 + y_88 >= 1
 c_1_7: y_7 + y_8 + y_21 + y_48 + y_54 + y_56 + y_60 + y_62 + y_82 >= 1
 c_1_8: y_7 + y_8 + y_16 + y_21 + y_40 + y_48 + y_53 + y_54 + y_56 + y_60
   + y_62 + y_82 >= 1
 c_1_9: y_9 + y_13 + y_17 + y_22 + y_32 + y_41 + y_43 + y_44 + y_46 + y_47
   + y_58 + y_67 + y_70 + y_80 + y_83 + y_84 >= 1
 c_1_10: y_10 + y_33 + y_63 + y_66 + y_72 + y_83 + y_95 >= 1
 c_1_11: y_0 + y_11 + y_14 + y_25 + y_26 + y_39 + y_42 + y_49 + y_64 + y_65
   + y_71 + y_89 + y_90 + y_98 >= 1
 c_1_12: y_6 + y_12 + y_14 + y_15 + y_18 + y_23 + y_34 + y_35 + y_36 + y_42
   + y_44 + y_46 + y_57 + y_76 + y_81 + y_99 >= 1
 c_1_13: y_1 + y_9 + y_13 + y_15 + y_32 + y_41 + y_43 + y_47 + y_58 + y_70
   + y_84 + y_97 >= 1
 c_1_14: y_11 + y_12 + y_14 + y_19 + y_34 + y_36 + y_42 + y_52 + y_57
   + y_59 + y_61 + y_65 + y_74 + y_76 >= 1
 c_1_15: y_12 + y_13 + y_15 + y_18 + y_20 + y_23 + y_36 + y_41 + y_43
   + y_44 + y_57 + y_58 + y_81 + y_84 + y_99 >= 1
 c_1_16: y_8 + y_16 + y_23 + y_40 + y_53 + y_60 + y_61 + y_62 + y_77 + y_82
   + y_86 + y_87 + y_99 >= 1
 c_1_17: y_9 + y_17 + y_32 + y_33 + y_63 + y_70 + y_72 + y_83 >= 1
 c_1_18: y_12 + y_15 + y_18 + y_20 + y_23 + y_34 + y_36 + y_41 + y_43
   + y_44 + y_46 + y_57 + y_76 + y_81 + y_84 + y_99 >= 1
 c_1_19: y_2 + y_5 + y_14 + y_19 + y_31 + y_34 + y_38 + y_42 + y_51 + y_52
   + y_59 + y_61 + y_68 + y_74 + y_76 + y_86 + y_87 + y_94 + y_96 >= 1
 c_1_20: y_1 + y_15 + y_18 + y_20 + y_21 + y_23 + y_40 + y_56 + y_60 + y_81
   + y_99 >= 1
 c_1_21: y_1 + y_7 + y_8 + y_20 + y_21 + y_40 + y_54 + y_56 + y_60 + y_62
   + y_73 + y_81 + y_82 + y_99 >= 1
 c_1_22: y_9 + y_22 + y_29 + y_41 + y_46 + y_67 + y_78 + y_80 + y_83 + y_88
   + y_95 >= 1
 c_1_23: y_12 + y_15 + y_16 + y_18 + y_20 + y_23 + y_34 + y_36 + y_40
   + y_61 + y_76 + y_77 + y_81 + y_86 + y_87 + y_99 >= 1
 c_1_24: y_1 + y_24 + y_73 + y_75 + y_97 >= 1
 c_1_25: y_0 + y_11 + y_25 + y_26 + y_39 + y_49 + y_64 + y_65 + y_71 + y_89
   + y_90 + y_98 >= 1
 c_1_26: y_0 + y_6 + y_11 + y_25 + y_26 + y_29 + y_30 + y_35 + y_37 + y_39
   + y_49 + y_55 + y_57 + y_64 + y_69 + y_71 + y_85 + y_88 + y_89 + y_90
   + y_92 + y_98 >= 1
 c_1_27: y_4 + y_27 + y_28 + y_30 + y_37 + y_50 + y_55 + y_69 + y_79 + y_89
   + y_92 + y_93 >= 1
 c_1_28: y_4 + y_27 + y_28 + y_30 + y_37 + y_50 + y_55 + y_69 + y_78 + y_79
   + y_92 + y_93 >= 1
 c_1_29: y_6 + y_22 + y_26 + y_29 + y_35 + y_44 + y_46 + y_49 + y_55 + y_67
   + y_69 + y_78 + y_80 + y_85 + y_88 >= 1
 c_1_30: y_0 + y_4 + y_26 + y_27 + y_28 + y_30 + y_37 + y_39 + y_49 + y_50
   + y_55 + y_64 + y_69 + y_78 + y_79 + y_85 + y_89 + y_90 + y_92 + y_93
   + y_98 >= 1
 c_1_31: y_2 + y_5 + y_19 + y_31 + y_38 + y_51 + y_52 + y_59 + y_61 + y_68
   + y_74 + y_87 + y_91 + y_94 + y_96 >= 1
 c_1_32: y_9 + y_13 + y_17 + y_32 + y_41 + y_43 + y_47 + y_58 + y_70 + y_72
   + y_80 + y_83 + y_84 + y_97 >= 1
 c_1_33: y_10 + y_17 + y_33 + y_63 + y_66 + y_72 + y_83 + y_95 >= 1
 c_1_34: y_12 + y_14 + y_18 + y_19 + y_23 + y_34 + y_36 + y_38 + y_42
   + y_52 + y_57 + y_59 + y_61 + y_68 + y_74 + y_76 + y_86 >= 1
 c_1_35: y_6 + y_12 + y_26 + y_29 + y_35 + y_44 + y_46 + y_49 + y_55 + y_57
   + y_67 + y_69 + y_78 + y_80 + y_85 + y_88 >= 1
 c_1_36: y_12 + y_14 + y_15 + y_18 + y_23 + y_34 + y_36 + y_43 + y_44
   + y_46 + y_57 + y_76 + y_81 + y_99 >= 1
 c_1_37: y_0 + y_4 + y_26 + y_27 + y_28 + y_30 + y_37 + y_49 + y_50 + y_55
   + y_64 + y_69 + y_78 + y_79 + y_85 + y_89 + y_90 + y_92 + y_93 + y_98
   >= 1
 c_1_38: y_2 + y_5 + y_19 + y_31 + y_34 + y_38 + y_51 + y_52 + y_59 + y_61
   + y_68 + y_74 + y_76 + y_77 + y_86 + y_87 + y_94 + y_96 >= 1
 c_1_39: y_0 + y_11 + y_25 + y_26 + y_30 + y_39 + y_49 + y_64 + y_65 + y_71
   + y_89 + y_90 + y_98 >= 1
 c_1_40: y_8 + y_16 + y_20 + y_21 + y_23 + y_40 + y_53 + y_56 + y_60 + y_61
   + y_62 + y_76 + y_77 + y_81 + y_82 + y_86 + y_99 >= 1
 c_1_41: y_9 + y_13 + y_15 + y_18 + y_22 + y_32 + y_41 + y_43 + y_44 + y_46
   + y_47 + y_58 + y_70 + y_80 + y_84 + y_97 >= 1
 c_1_42: y_11 + y_12 + y_14 + y_19 + y_34 + y_42 + y_52 + y_57 + y_59
   + y_65 + y_71 + y_74 + y_76 >= 1
 c_1_43: y_9 + y_13 + y_15 + y_18 + y_32 + y_36 + y_41 + y_43 + y_44 + y_46
   + y_47 + y_58 + y_80 + y_81 + y_84 + y_97 >= 1
 c_1_44: y_6 + y_9 + y_12 + y_15 + y_18 + y_29 + y_35 + y_36 + y_41 + y_43
   + y_44 + y_46 + y_57 + y_58 + y_80 + y_84 + y_88 >= 1
 c_1_45: y_3 + y_45 + y_63 + y_66 + y_72 >= 1
 c_1_46: y_6 + y_9 + y_12 + y_18 + y_22 + y_29 + y_35 + y_36 + y_41 + y_43
   + y_44 + y_46 + y_57 + y_67 + y_78 + y_80 + y_84 + y_85 + y_88 >= 1
 c_1_47: y_1 + y_9 + y_13 + y_32 + y_41 + y_43 + y_47 + y_58 + y_70 + y_75
   + y_84 + y_97 >= 1
 c_1_48: y_7 + y_8 + y_48 + y_56 + y_62 + y_82 >= 1
 c_1_49: y_0 + y_6 + y_11 + y_25 + y_26 + y_29 + y_30 + y_35 + y_37 + y_39
   + y_49 + y_55 + y_64 + y_69 + y_71 + y_85 + y_88 + y_89 + y_90 + y_92
   + y_93 + y_98 >= 1
 c_1_50: y_4 + y_27 + y_28 + y_30 + y_37 + y_50 + y_55 + y_69 + y_78 + y_79
   + y_85 + y_92 + y_93 >= 1
 c_1_51: y_2 + y_5 + y_19 + y_31 + y_38 + y_51 + y_52 + y_68 + y_91 + y_94
   + y_96 >= 1
 c_1_52: y_2 + y_5 + y_14 + y_19 + y_31 + y_34 + y_38 + y_42 + y_51 + y_52
   + y_59 + y_61 + y_68 + y_74 + y_76 + y_86 + y_87 + y_94 + y_96 >= 1
 c_1_53: y_8 + y_16 + y_40 + y_53 + y_62 + y_77 + y_82 + y_86 + y_87 >= 1
 c_1_54: y_1 + y_7 + y_8 + y_21 + y_54 + y_56 + y_60 + y_62 + y_73 + y_82
   >= 1
 c_1_55: y_0 + y_4 + y_6 + y_26 + y_27 + y_28 + y_29 + y_30 + y_35 + y_37
   + y_49 + y_50 + y_55 + y_69 + y_78 + y_79 + y_85 + y_88 + y_89 + y_92
   + y_93 >= 1
 c_1_56: y_1 + y_7 + y_8 + y_20 + y_21 + y_40 + y_48 + y_54 + y_56 + y_60
   + y_62 + y_73 + y_82 >= 1
 c_1_57: y_6 + y_12 + y_14 + y_15 + y_18 + y_26 + y_34 + y_35 + y_36 + y_42
   + y_44 + y_46 + y_57 + y_76 >= 1
 c_1_58: y_9 + y_13 + y_15 + y_32 + y_41 + y_43 + y_44 + y_47 + y_58 + y_70
   + y_84 + y_97 >= 1
 c_1_59: y_2 + y_14 + y_19 + y_31 + y_34 + y_38 + y_42 + y_52 + y_59 + y_65
   + y_68 + y_74 + y_94 + y_96 >= 1
 c_1_60: y_1 + y_7 + y_8 + y_16 + y_20 + y_21 + y_40 + y_54 + y_56 + y_60
   + y_62 + y_77 + y_81 + y_82 + y_99 >= 1
 c_1_61: y_2 + y_14 + y_16 + y_19 + y_23 + y_31 + y_34 + y_38 + y_40 + y_52
   + y_61 + y_68 + y_76 + y_77 + y_86 + y_87 + y_94 + y_96 + y_99 >= 1
 c_1_62: y_7 + y_8 + y_16 + y_21 + y_40 + y_48 + y_53 + y_54 + y_56 + y_60
   + y_62 + y_82 >= 1
 c_1_63: y_3 + y_10 + y_17 + y_33 + y_45 + y_63 + y_66 + y_72 + y_83 >= 1
 c_1_64: y_0 + y_11 + y_25 + y_26 + y_30 + y_37 + y_39 + y_49 + y_64 + y_71
   + y_89 + y_90 + y_98 >= 1
 c_1_65: y_11 + y_14 + y_25 + y_39 + y_42 + y_59 + y_65 + y_71 + y_74
   + y_98 >= 1
 c_1_66: y_3 + y_10 + y_33 + y_45 + y_63 + y_66 + y_72 + y_83 >= 1
 c_1_67: y_6 + y_9 + y_22 + y_29 + y_35 + y_46 + y_67 + y_78 + y_80 + y_85
   + y_88 + y_95 >= 1
 c_1_68: y_2 + y_5 + y_19 + y_31 + y_34 + y_38 + y_51 + y_52 + y_59 + y_61
   + y_68 + y_74 + y_76 + y_77 + y_86 + y_87 + y_94 + y_96 >= 1
 c_1_69: y_0 + y_4 + y_6 + y_26 + y_27 + y_28 + y_29 + y_30 + y_35 + y_37
   + y_49 + y_50 + y_55 + y_69 + y_78 + y_79 + y_85 + y_89 + y_90 + y_92
   + y_93 + y_98 >= 1
 c_1_70: y_9 + y_13 + y_17 + y_32 + y_41 + y_47 + y_58 + y_70 + y_75 + y_84
   + y_97 >= 1
 c_1_71: y_0 + y_11 + y_25 + y_26 + y_39 + y_42 + y_49 + y_64 + y_65 + y_71
   + y_89 + y_90 + y_98 >= 1
 c_1_72: y_3 + y_10 + y_17 + y_32 + y_33 + y_45 + y_63 + y_66 + y_72 + y_83
   >= 1
 c_1_73: y_1 + y_21 + y_24 + y_54 + y_56 + y_73 >= 1
 c_1_74: y_2 + y_5 + y_14 + y_19 + y_31 + y_34 + y_38 + y_42 + y_52 + y_59
   + y_65 + y_68 + y_74 + y_94 + y_96 >= 1
 c_1_75: y_24 + y_47 + y_70 + y_75 + y_97 >= 1
 c_1_76: y_12 + y_14 + y_18 + y_19 + y_23 + y_34 + y_36 + y_38 + y_40
   + y_42 + y_52 + y_57 + y_61 + y_68 + y_76 + y_77 + y_86 + y_87 + y_99
   >= 1
 c_1_77: y_16 + y_23 + y_38 + y_40 + y_53 + y_60 + y_61 + y_68 + y_76
   + y_77 + y_86 + y_87 + y_99 >= 1
 c_1_78: y_4 + y_6 + y_22 + y_28 + y_29 + y_30 + y_35 + y_37 + y_46 + y_50
   + y_55 + y_67 + y_69 + y_78 + y_79 + y_80 + y_85 + y_88 + y_92 + y_93
   >= 1
 c_1_79: y_4 + y_27 + y_28 + y_30 + y_37 + y_50 + y_55 + y_69 + y_78 + y_79
   + y_85 + y_92 + y_93 >= 1
 c_1_80: y_6 + y_9 + y_22 + y_29 + y_32 + y_35 + y_41 + y_43 + y_44 + y_46
   + y_67 + y_78 + y_80 + y_84 + y_88 >= 1
 c_1_81: y_1 + y_12 + y_15 + y_18 + y_20 + y_21 + y_23 + y_36 + y_40 + y_43
   + y_60 + y_81 + y_84 + y_99 >= 1
 c_1_82: y_7 + y_8 + y_16 + y_21 + y_40 + y_48 + y_53 + y_54 + y_56 + y_60
   + y_62 + y_82 >= 1
 c_1_83: y_9 + y_10 + y_17 + y_22 + y_32 + y_33 + y_63 + y_66 + y_72 + y_83
   + y_95 >= 1
 c_1_84: y_9 + y_13 + y_15 + y_18 + y_32 + y_41 + y_43 + y_44 + y_46 + y_47
   + y_58 + y_70 + y_80 + y_81 + y_84 + y_97 >= 1
 c_1_85: y_0 + y_4 + y_6 + y_26 + y_29 + y_30 + y_35 + y_37 + y_46 + y_49
   + y_50 + y_55 + y_67 + y_69 + y_78 + y_79 + y_85 + y_88 + y_90 + y_92
   + y_93 >= 1
 c_1_86: y_2 + y_16 + y_19 + y_23 + y_34 + y_38 + y_40 + y_52 + y_53 + y_61
   + y_68 + y_76 + y_77 + y_86 + y_87 + y_94 + y_99 >= 1
 c_1_87: y_2 + y_16 + y_19 + y_23 + y_31 + y_38 + y_52 + y_53 + y_61 + y_68
   + y_76 + y_77 + y_86 + y_87 + y_94 + y_96 >= 1
 c_1_88: y_6 + y_22 + y_26 + y_29 + y_35 + y_44 + y_46 + y_49 + y_55 + y_67
   + y_78 + y_80 + y_85 + y_88 >= 1
 c_1_89: y_0 + y_11 + y_25 + y_26 + y_27 + y_30 + y_37 + y_39 + y_49 + y_55
   + y_64 + y_69 + y_71 + y_89 + y_90 + y_92 + y_98 >= 1
 c_1_90: y_0 + y_11 + y_25 + y_26 + y_30 + y_37 + y_39 + y_49 + y_64 + y_69
   + y_71 + y_85 + y_89 + y_90 + y_92 + y_98 >= 1
 c_1_91: y_2 + y_5 + y_31 + y_51 + y_91 + y_96 >= 1
 c_1_92: y_0 + y_4 + y_26 + y_27 + y_28 + y_30 + y_37 + y_49 + y_50 + y_55
   + y_69 + y_78 + y_79 + y_85 + y_89 + y_90 + y_92 + y_93 >= 1
 c_1_93: y_4 + y_27 + y_28 + y_30 + y_37 + y_49 + y_50 + y_55 + y_69 + y_78
   + y_79 + y_85 + y_92 + y_93 >= 1
 c_1_94: y_2 + y_5 + y_19 + y_31 + y_38 + y_51 + y_52 + y_59 + y_61 + y_68
   + y_74 + y_86 + y_87 + y_94 + y_96 >= 1
 c_1_95: y_10 + y_22 + y_33 + y_67 + y_83 + y_95 >= 1
 c_1_96: y_2 + y_5 + y_19 + y_31 + y_38 + y_51 + y_52 + y_59 + y_61 + y_68
   + y_74 + y_87 + y_91 + y_94 + y_96 >= 1
 c_1_97: y_1 + y_13 + y_24 + y_32 + y_41 + y_43 + y_47 + y_58 + y_70 + y_75
   + y_84 + y_97 >= 1
 c_1_98: y_0 + y_11 + y_25 + y_26 + y_30 + y_37 + y_39 + y_49 + y_64 + y_65
   + y_69 + y_71 + y_89 + y_90 + y_98 >= 1
 c_1_99: y_12 + y_15 + y_16 + y_18 + y_20 + y_21 + y_23 + y_36 + y_40
   + y_60 + y_61 + y_76 + y_77 + y_81 + y_86 + y_99 >= 1
Bounds
 Constant = 1
Binaries
 y_0 y_1 y_2 y_3 y_4 y_5 y_6 y_7 y_8 y_9 y_10 y_11 y_12 y_13 y_14 y_15 y_16
 y_17 y_18 y_19 y_20 y_21 y_22 y_23 y_24 y_25 y_26 y_27 y_28 y_29 y_30 y_31
 y_32 y_33 y_34 y_35 y_36 y_37 y_38 y_39 y_40 y_41 y_42 y_43 y_44 y_45 y_46
 y_47 y_48 y_49 y_50 y_51 y_52 y_53 y_54 y_55 y_56 y_57 y_58 y_59 y_60 y_61
 y_62 y_63 y_64 y_65 y_66 y_67 y_68 y_69 y_70 y_71 y_72 y_73 y_74 y_75 y_76
 y_77 y_78 y_79 y_80 y_81 y_82 y_83 y_84 y_85 y_86 y_87 y_88 y_89 y_90 y_91
 y_92 y_93 y_94 y_95 y_96 y_97 y_98 y_99
End
